p cnf 102 394
54 55 56 57 58 59 60 61 62 63 0
64 65 66 67 68 69 70 71 72 73 0
84 85 86 87 88 89 90 91 92 93 0
-1 -12 0
-1 -23 0
-1 -32 0
-1 -44 0
-1 -74 0
-1 -84 0
-1 -94 0
-12 -23 0
-12 -32 0
-12 -44 0
-12 -74 0
-12 -84 0
-12 -94 0
-23 -32 0
-23 -44 0
-23 -74 0
-23 -84 0
-23 -94 0
-32 -44 0
-32 -74 0
-32 -84 0
-32 -94 0
-44 -74 0
-44 -84 0
-44 -94 0
-74 -84 0
-74 -94 0
-84 -94 0
-2 -13 0
-2 -24 0
-2 -33 0
-2 -54 0
-2 -75 0
-2 -85 0
-13 -24 0
-13 -33 0
-13 -54 0
-13 -75 0
-13 -85 0
-24 -33 0
-24 -54 0
-24 -75 0
-24 -85 0
-33 -54 0
-33 -75 0
-33 -85 0
-54 -75 0
-54 -85 0
-75 -85 0
-3 -14 0
-3 -34 0
-3 -45 0
-3 -55 0
-3 -64 0
-3 -76 0
-3 -86 0
-3 -95 0
-14 -34 0
-14 -45 0
-14 -55 0
-14 -64 0
-14 -76 0
-14 -86 0
-14 -95 0
-34 -45 0
-34 -55 0
-34 -64 0
-34 -76 0
-34 -86 0
-34 -95 0
-45 -55 0
-45 -64 0
-45 -76 0
-45 -86 0
-45 -95 0
-55 -64 0
-55 -76 0
-55 -86 0
-55 -95 0
-64 -76 0
-64 -86 0
-64 -95 0
-76 -86 0
-76 -95 0
-86 -95 0
-15 -25 0
-15 -35 0
-15 -46 0
-15 -56 0
-15 -65 0
-15 -77 0
-15 -87 0
-25 -35 0
-25 -46 0
-25 -56 0
-25 -65 0
-25 -77 0
-25 -87 0
-35 -46 0
-35 -56 0
-35 -65 0
-35 -77 0
-35 -87 0
-46 -56 0
-46 -65 0
-46 -77 0
-46 -87 0
-56 -65 0
-56 -77 0
-56 -87 0
-65 -77 0
-65 -87 0
-77 -87 0
-4 -36 0
-4 -47 0
-4 -57 0
-4 -66 0
-4 -78 0
-4 -88 0
-4 -96 0
-36 -47 0
-36 -57 0
-36 -66 0
-36 -78 0
-36 -88 0
-36 -96 0
-47 -57 0
-47 -66 0
-47 -78 0
-47 -88 0
-47 -96 0
-57 -66 0
-57 -78 0
-57 -88 0
-57 -96 0
-66 -78 0
-66 -88 0
-66 -96 0
-78 -88 0
-78 -96 0
-88 -96 0
-5 -16 0
-5 -26 0
-5 -37 0
-5 -48 0
-5 -67 0
-16 -26 0
-16 -37 0
-16 -48 0
-16 -67 0
-26 -37 0
-26 -48 0
-26 -67 0
-37 -48 0
-37 -67 0
-48 -67 0
-6 -17 0
-6 -27 0
-6 -38 0
-6 -49 0
-6 -58 0
-6 -68 0
-6 -79 0
-6 -89 0
-6 -97 0
-17 -27 0
-17 -38 0
-17 -49 0
-17 -58 0
-17 -68 0
-17 -79 0
-17 -89 0
-17 -97 0
-27 -38 0
-27 -49 0
-27 -58 0
-27 -68 0
-27 -79 0
-27 -89 0
-27 -97 0
-38 -49 0
-38 -58 0
-38 -68 0
-38 -79 0
-38 -89 0
-38 -97 0
-49 -58 0
-49 -68 0
-49 -79 0
-49 -89 0
-49 -97 0
-58 -68 0
-58 -79 0
-58 -89 0
-58 -97 0
-68 -79 0
-68 -89 0
-68 -97 0
-79 -89 0
-79 -97 0
-89 -97 0
-7 -18 0
-7 -28 0
-7 -39 0
-7 -50 0
-7 -59 0
-7 -69 0
-7 -80 0
-7 -90 0
-7 -98 0
-18 -28 0
-18 -39 0
-18 -50 0
-18 -59 0
-18 -69 0
-18 -80 0
-18 -90 0
-18 -98 0
-28 -39 0
-28 -50 0
-28 -59 0
-28 -69 0
-28 -80 0
-28 -90 0
-28 -98 0
-39 -50 0
-39 -59 0
-39 -69 0
-39 -80 0
-39 -90 0
-39 -98 0
-50 -59 0
-50 -69 0
-50 -80 0
-50 -90 0
-50 -98 0
-59 -69 0
-59 -80 0
-59 -90 0
-59 -98 0
-69 -80 0
-69 -90 0
-69 -98 0
-80 -90 0
-80 -98 0
-90 -98 0
-8 -19 0
-8 -40 0
-8 -51 0
-8 -60 0
-8 -70 0
-8 -81 0
-8 -99 0
-19 -40 0
-19 -51 0
-19 -60 0
-19 -70 0
-19 -81 0
-19 -99 0
-40 -51 0
-40 -60 0
-40 -70 0
-40 -81 0
-40 -99 0
-51 -60 0
-51 -70 0
-51 -81 0
-51 -99 0
-60 -70 0
-60 -81 0
-60 -99 0
-70 -81 0
-70 -99 0
-81 -99 0
-9 -20 0
-9 -29 0
-9 -41 0
-9 -52 0
-9 -61 0
-9 -71 0
-9 -91 0
-9 -100 0
-20 -29 0
-20 -41 0
-20 -52 0
-20 -61 0
-20 -71 0
-20 -91 0
-20 -100 0
-29 -41 0
-29 -52 0
-29 -61 0
-29 -71 0
-29 -91 0
-29 -100 0
-41 -52 0
-41 -61 0
-41 -71 0
-41 -91 0
-41 -100 0
-52 -61 0
-52 -71 0
-52 -91 0
-52 -100 0
-61 -71 0
-61 -91 0
-61 -100 0
-71 -91 0
-71 -100 0
-91 -100 0
-10 -21 0
-10 -30 0
-10 -42 0
-10 -53 0
-10 -62 0
-10 -72 0
-10 -82 0
-10 -92 0
-10 -101 0
-21 -30 0
-21 -42 0
-21 -53 0
-21 -62 0
-21 -72 0
-21 -82 0
-21 -92 0
-21 -101 0
-30 -42 0
-30 -53 0
-30 -62 0
-30 -72 0
-30 -82 0
-30 -92 0
-30 -101 0
-42 -53 0
-42 -62 0
-42 -72 0
-42 -82 0
-42 -92 0
-42 -101 0
-53 -62 0
-53 -72 0
-53 -82 0
-53 -92 0
-53 -101 0
-62 -72 0
-62 -82 0
-62 -92 0
-62 -101 0
-72 -82 0
-72 -92 0
-72 -101 0
-82 -92 0
-82 -101 0
-92 -101 0
-11 -22 0
-11 -31 0
-11 -43 0
-11 -63 0
-11 -73 0
-11 -83 0
-11 -93 0
-11 -102 0
-22 -31 0
-22 -43 0
-22 -63 0
-22 -73 0
-22 -83 0
-22 -93 0
-22 -102 0
-31 -43 0
-31 -63 0
-31 -73 0
-31 -83 0
-31 -93 0
-31 -102 0
-43 -63 0
-43 -73 0
-43 -83 0
-43 -93 0
-43 -102 0
-63 -73 0
-63 -83 0
-63 -93 0
-63 -102 0
-73 -83 0
-73 -93 0
-73 -102 0
-83 -93 0
-83 -102 0
-93 -102 0
